10
0 151 262 616 26 106 164 20 49 304
151 0 354 244 398 111 286 58 75 10
262 354 0 224 490 19 55 90 441 88
616 244 224 0 276 383 178 687 9 116
26 398 490 276 0 400 333 172 231 205
106 111 19 383 400 0 144 53 123 861
164 286 55 178 333 144 0 176 133 49
20 58 90 687 172 53 176 0 62 166
49 75 441 9 231 123 133 62 0 544
304 10 88 116 205 861 49 166 544 0